db/data/189411286531067231282974129050697521892.z3.out
-------------------
2500.107594956
